c
p cnf 108 504
-1 -7 13  0
7 -13  0
1 -13  0
-2 -7 14  0
7 -14  0
2 -14  0
-3 -7 15  0
7 -15  0
3 -15  0
-4 -7 16  0
7 -16  0
4 -16  0
-5 -7 17  0
7 -17  0
5 -17  0
-6 -7 18  0
7 -18  0
6 -18  0
-1 -8 19  0
8 -19  0
1 -19  0
-2 -8 20  0
8 -20  0
2 -20  0
-3 -8 21  0
8 -21  0
3 -21  0
-4 -8 22  0
8 -22  0
4 -22  0
-5 -8 23  0
8 -23  0
5 -23  0
-6 -8 24  0
8 -24  0
6 -24  0
-1 -9 25  0
9 -25  0
1 -25  0
-2 -9 26  0
9 -26  0
2 -26  0
-3 -9 27  0
9 -27  0
3 -27  0
-4 -9 28  0
9 -28  0
4 -28  0
-5 -9 29  0
9 -29  0
5 -29  0
-6 -9 30  0
9 -30  0
6 -30  0
-1 -10 31  0
10 -31  0
1 -31  0
-2 -10 32  0
10 -32  0
2 -32  0
-3 -10 33  0
10 -33  0
3 -33  0
-4 -10 34  0
10 -34  0
4 -34  0
-5 -10 35  0
10 -35  0
5 -35  0
-6 -10 36  0
10 -36  0
6 -36  0
-1 -11 37  0
11 -37  0
1 -37  0
-2 -11 38  0
11 -38  0
2 -38  0
-3 -11 39  0
11 -39  0
3 -39  0
-4 -11 40  0
11 -40  0
4 -40  0
-5 -11 41  0
11 -41  0
5 -41  0
-6 -11 42  0
11 -42  0
6 -42  0
-1 -12 43  0
12 -43  0
1 -43  0
-2 -12 44  0
12 -44  0
2 -44  0
-3 -12 45  0
12 -45  0
3 -45  0
-4 -12 46  0
12 -46  0
4 -46  0
-5 -12 47  0
12 -47  0
5 -47  0
-6 -12 48  0
12 -48  0
6 -48  0
14 19 -49  0
-14 -19 -49  0
-14 19 49  0
14 -19 49  0
19 -50  0
14 -50  0
14 19 -50  0
-14 -19 50  0
15 20 50 -51  0
-15 -20 50 -51  0
-15 20 -50 -51  0
15 -20 -50 -51  0
15 20 -50 51  0
-15 -20 -50 51  0
-15 20 50 51  0
15 -20 50 51  0
20 50 -52  0
15 50 -52  0
15 20 -52  0
-20 -50 52  0
-15 -50 52  0
-15 -20 52  0
16 21 52 -53  0
-16 -21 52 -53  0
-16 21 -52 -53  0
16 -21 -52 -53  0
16 21 -52 53  0
-16 -21 -52 53  0
-16 21 52 53  0
16 -21 52 53  0
21 52 -54  0
16 52 -54  0
16 21 -54  0
-21 -52 54  0
-16 -52 54  0
-16 -21 54  0
17 22 54 -55  0
-17 -22 54 -55  0
-17 22 -54 -55  0
17 -22 -54 -55  0
17 22 -54 55  0
-17 -22 -54 55  0
-17 22 54 55  0
17 -22 54 55  0
22 54 -56  0
17 54 -56  0
17 22 -56  0
-22 -54 56  0
-17 -54 56  0
-17 -22 56  0
18 23 56 -57  0
-18 -23 56 -57  0
-18 23 -56 -57  0
18 -23 -56 -57  0
18 23 -56 57  0
-18 -23 -56 57  0
-18 23 56 57  0
18 -23 56 57  0
23 56 -58  0
18 56 -58  0
18 23 -58  0
-23 -56 58  0
-18 -56 58  0
-18 -23 58  0
24 58 -59  0
-24 -58 -59  0
24 -58 59  0
-24 58 59  0
24 58 -60  0
58 -60  0
24 -60  0
-24 -58 60  0
51 25 -61  0
-51 -25 -61  0
-51 25 61  0
51 -25 61  0
25 -62  0
51 -62  0
51 25 -62  0
-51 -25 62  0
53 26 62 -63  0
-53 -26 62 -63  0
-53 26 -62 -63  0
53 -26 -62 -63  0
53 26 -62 63  0
-53 -26 -62 63  0
-53 26 62 63  0
53 -26 62 63  0
26 62 -64  0
53 62 -64  0
53 26 -64  0
-26 -62 64  0
-53 -62 64  0
-53 -26 64  0
55 27 64 -65  0
-55 -27 64 -65  0
-55 27 -64 -65  0
55 -27 -64 -65  0
55 27 -64 65  0
-55 -27 -64 65  0
-55 27 64 65  0
55 -27 64 65  0
27 64 -66  0
55 64 -66  0
55 27 -66  0
-27 -64 66  0
-55 -64 66  0
-55 -27 66  0
57 28 66 -67  0
-57 -28 66 -67  0
-57 28 -66 -67  0
57 -28 -66 -67  0
57 28 -66 67  0
-57 -28 -66 67  0
-57 28 66 67  0
57 -28 66 67  0
28 66 -68  0
57 66 -68  0
57 28 -68  0
-28 -66 68  0
-57 -66 68  0
-57 -28 68  0
59 29 68 -69  0
-59 -29 68 -69  0
-59 29 -68 -69  0
59 -29 -68 -69  0
59 29 -68 69  0
-59 -29 -68 69  0
-59 29 68 69  0
59 -29 68 69  0
29 68 -70  0
59 68 -70  0
59 29 -70  0
-29 -68 70  0
-59 -68 70  0
-59 -29 70  0
60 30 70 -71  0
-60 -30 70 -71  0
-60 30 -70 -71  0
60 -30 -70 -71  0
60 30 -70 71  0
-60 -30 -70 71  0
-60 30 70 71  0
60 -30 70 71  0
30 70 -72  0
60 70 -72  0
60 30 -72  0
-30 -70 72  0
-60 -70 72  0
-60 -30 72  0
63 31 -73  0
-63 -31 -73  0
-63 31 73  0
63 -31 73  0
31 -74  0
63 -74  0
63 31 -74  0
-63 -31 74  0
65 32 74 -75  0
-65 -32 74 -75  0
-65 32 -74 -75  0
65 -32 -74 -75  0
65 32 -74 75  0
-65 -32 -74 75  0
-65 32 74 75  0
65 -32 74 75  0
32 74 -76  0
65 74 -76  0
65 32 -76  0
-32 -74 76  0
-65 -74 76  0
-65 -32 76  0
67 33 76 -77  0
-67 -33 76 -77  0
-67 33 -76 -77  0
67 -33 -76 -77  0
67 33 -76 77  0
-67 -33 -76 77  0
-67 33 76 77  0
67 -33 76 77  0
33 76 -78  0
67 76 -78  0
67 33 -78  0
-33 -76 78  0
-67 -76 78  0
-67 -33 78  0
69 34 78 -79  0
-69 -34 78 -79  0
-69 34 -78 -79  0
69 -34 -78 -79  0
69 34 -78 79  0
-69 -34 -78 79  0
-69 34 78 79  0
69 -34 78 79  0
34 78 -80  0
69 78 -80  0
69 34 -80  0
-34 -78 80  0
-69 -78 80  0
-69 -34 80  0
71 35 80 -81  0
-71 -35 80 -81  0
-71 35 -80 -81  0
71 -35 -80 -81  0
71 35 -80 81  0
-71 -35 -80 81  0
-71 35 80 81  0
71 -35 80 81  0
35 80 -82  0
71 80 -82  0
71 35 -82  0
-35 -80 82  0
-71 -80 82  0
-71 -35 82  0
72 36 82 -83  0
-72 -36 82 -83  0
-72 36 -82 -83  0
72 -36 -82 -83  0
72 36 -82 83  0
-72 -36 -82 83  0
-72 36 82 83  0
72 -36 82 83  0
36 82 -84  0
72 82 -84  0
72 36 -84  0
-36 -82 84  0
-72 -82 84  0
-72 -36 84  0
75 37 -85  0
-75 -37 -85  0
-75 37 85  0
75 -37 85  0
37 -86  0
75 -86  0
75 37 -86  0
-75 -37 86  0
77 38 86 -87  0
-77 -38 86 -87  0
-77 38 -86 -87  0
77 -38 -86 -87  0
77 38 -86 87  0
-77 -38 -86 87  0
-77 38 86 87  0
77 -38 86 87  0
38 86 -88  0
77 86 -88  0
77 38 -88  0
-38 -86 88  0
-77 -86 88  0
-77 -38 88  0
79 39 88 -89  0
-79 -39 88 -89  0
-79 39 -88 -89  0
79 -39 -88 -89  0
79 39 -88 89  0
-79 -39 -88 89  0
-79 39 88 89  0
79 -39 88 89  0
39 88 -90  0
79 88 -90  0
79 39 -90  0
-39 -88 90  0
-79 -88 90  0
-79 -39 90  0
81 40 90 -91  0
-81 -40 90 -91  0
-81 40 -90 -91  0
81 -40 -90 -91  0
81 40 -90 91  0
-81 -40 -90 91  0
-81 40 90 91  0
81 -40 90 91  0
40 90 -92  0
81 90 -92  0
81 40 -92  0
-40 -90 92  0
-81 -90 92  0
-81 -40 92  0
83 41 92 -93  0
-83 -41 92 -93  0
-83 41 -92 -93  0
83 -41 -92 -93  0
83 41 -92 93  0
-83 -41 -92 93  0
-83 41 92 93  0
83 -41 92 93  0
41 92 -94  0
83 92 -94  0
83 41 -94  0
-41 -92 94  0
-83 -92 94  0
-83 -41 94  0
84 42 94 -95  0
-84 -42 94 -95  0
-84 42 -94 -95  0
84 -42 -94 -95  0
84 42 -94 95  0
-84 -42 -94 95  0
-84 42 94 95  0
84 -42 94 95  0
42 94 -96  0
84 94 -96  0
84 42 -96  0
-42 -94 96  0
-84 -94 96  0
-84 -42 96  0
87 43 -97  0
-87 -43 -97  0
-87 43 97  0
87 -43 97  0
43 -98  0
87 -98  0
87 43 -98  0
-87 -43 98  0
89 44 98 -99  0
-89 -44 98 -99  0
-89 44 -98 -99  0
89 -44 -98 -99  0
89 44 -98 99  0
-89 -44 -98 99  0
-89 44 98 99  0
89 -44 98 99  0
44 98 -100  0
89 98 -100  0
89 44 -100  0
-44 -98 100  0
-89 -98 100  0
-89 -44 100  0
91 45 100 -101  0
-91 -45 100 -101  0
-91 45 -100 -101  0
91 -45 -100 -101  0
91 45 -100 101  0
-91 -45 -100 101  0
-91 45 100 101  0
91 -45 100 101  0
45 100 -102  0
91 100 -102  0
91 45 -102  0
-45 -100 102  0
-91 -100 102  0
-91 -45 102  0
93 46 102 -103  0
-93 -46 102 -103  0
-93 46 -102 -103  0
93 -46 -102 -103  0
93 46 -102 103  0
-93 -46 -102 103  0
-93 46 102 103  0
93 -46 102 103  0
46 102 -104  0
93 102 -104  0
93 46 -104  0
-46 -102 104  0
-93 -102 104  0
-93 -46 104  0
95 47 104 -105  0
-95 -47 104 -105  0
-95 47 -104 -105  0
95 -47 -104 -105  0
95 47 -104 105  0
-95 -47 -104 105  0
-95 47 104 105  0
95 -47 104 105  0
47 104 -106  0
95 104 -106  0
95 47 -106  0
-47 -104 106  0
-95 -104 106  0
-95 -47 106  0
96 48 106 -107  0
-96 -48 106 -107  0
-96 48 -106 -107  0
96 -48 -106 -107  0
96 48 -106 107  0
-96 -48 -106 107  0
-96 48 106 107  0
96 -48 106 107  0
48 106 -108  0
96 106 -108  0
96 48 -108  0
-48 -106 108  0
-96 -106 108  0
-96 -48 108  0
13  0
49  0
61  0
73  0
-85  0
-97  0
-99  0
-101  0
-103  0
105  0
107  0
108  0
